Minimize
 obj: - 6 y(0) + 6 y(2) - y(6) - 3 y(9) - 10 y(11) - 8 y(16) + 2 y(19)
      + 129 x(0) - 8 y(3) + y(7) - 3 y(8) - 4 y(10) - 6 y(12) - 4 y(13)
      - 6 y(17) - 4 y(18) + 20 x(1) + y(14) + 4 y(15) - 124 x(2) + 7 y(1)
      - 2 y(5) + 133 x(3) + 2 y(4) - 156 x(4) + 80 x(5) + 32 x(6) - 54 x(7)
      + 196 x(8) - 145 x(9) - 67 x(10) - 177 x(11) + 48 x(12) + 129 x(13)
      - 88 x(14) - 176 x(15) - 139 x(16) + 5 x(17) - 140 x(18) + 130 x(19)
Subject To
 c1:  4 y(0) + 11 y(2) + 4 y(6) + 20 y(9) + y(11) + y(16) + 19 y(19) + 20 x(0)
      <= 83
 c2:  17 y(6) + 12 y(11) + 20 y(3) + 5 y(7) + 7 y(8) + 19 y(10) + 20 y(12)
      + y(13) - y(17) + 2 y(18) + 16 x(1) <= 99
 c3:  2 y(6) + y(11) + 17 y(3) + 2 y(7) + 14 y(10) + 19 y(12) + 11 y(13)
      + 14 y(17) + 8 y(14) + 14 y(15) + 18 x(2) <= 83
 c4:  14 y(9) + 11 y(11) + 20 y(8) + 13 y(13) + 2 y(14) - y(1) + 16 y(5)
      + 19 x(3) <= 55
 c5:  6 y(11) + 19 y(3) + 9 y(8) + 10 y(13) + 3 y(18) + 16 y(14) + 12 y(1)
      + 20 y(4) + 12 x(4) <= 67
 c6:  9 y(6) + 17 y(3) - y(7) + y(10) + 14 y(12) + 16 y(15) + 15 y(5) + 4 x(5)
      <= 97
 c7:  12 y(6) + 17 y(11) + 3 y(16) + 19 y(3) + 8 y(13) + 17 y(14) + 14 y(5)
      + 18 x(6) <= 73
 c8:  12 y(2) - y(9) + 10 y(14) + 16 y(1) + 5 y(5) + 19 x(7) <= 64
 c9:  - y(0) + y(9) + 16 y(11) + 19 y(16) + 8 y(7) + y(13) + 7 y(14) + 2 y(15)
      + 17 y(4) + 16 x(8) <= 64
 c10: 2 y(2) + 17 y(6) + 15 y(9) + 4 y(11) + 15 y(7) + 15 y(12) + 5 y(17)
      + 2 y(18) + 19 x(9) <= 80
 c11: 11 y(6) + 16 y(3) + 8 y(10) + 19 y(18) - y(14) + 13 y(1) + 5 y(5)
      + 13 y(4) + 9 x(10) <= 84
 c12: 5 y(0) + 6 y(2) + 17 y(9) + 20 y(16) + 6 y(3) + 16 y(8) + 17 y(10)
      + 9 y(12) + 9 y(18) + 3 y(15) + 19 y(1) + 9 y(5) + 6 x(11) <= 78
 c13: y(2) + 10 y(9) - y(16) + 9 y(8) + y(17) + y(5) + 17 y(4) + 17 x(12) <= 99
 c14: 20 y(0) - y(2) + 18 y(6) + 11 y(19) + 20 y(8) + 15 y(18) + 9 y(14)
      + 18 y(15) + 13 y(1) + 5 y(5) + x(13) <= 52
 c15: 8 y(6) + 10 y(9) + 8 y(3) + 11 y(7) - y(12) + 14 y(13) - y(18) + 10 y(14)
      - y(5) + 10 y(4) + 13 x(14) <= 60
 c16: 8 y(0) + 10 y(6) + 9 y(9) + 8 y(8) + 4 y(17) + 17 y(18) + 16 y(14)
      + 19 y(1) + 14 y(5) + 19 y(4) + 2 x(15) <= 98
 c17: 20 y(0) + 13 y(9) - y(16) + 10 y(19) + 16 y(7) + 17 y(8) + 12 y(13)
      + 20 y(17) + 3 y(18) + 7 y(14) + 11 y(15) + 13 x(16) <= 53
 c18: 11 y(2) + 4 y(9) + 8 y(11) + 4 y(7) + 9 y(13) + 3 y(17) + 10 y(18)
      + 20 y(14) + 11 y(15) + 16 y(1) + y(5) + 5 y(4) + 5 x(17) <= 66
 c19: 7 y(0) + 3 y(9) + 15 y(19) + 12 y(3) + y(10) + 9 x(18) <= 61
 c20: 11 y(0) + 7 y(2) + 2 y(9) + 8 y(11) + 12 y(8) + 12 y(13) + 18 y(17)
      + 18 y(18) + 6 y(15) + 13 y(1) + 11 y(4) + 8 x(19) <= 53
 c21: 4 y(6) + 12 y(11) - y(16) + 17 y(3) + 2 y(7) + 5 y(8) + 10 y(12)
      + 12 y(18) <= 89
 c22: 20 y(0) + 8 y(6) + 17 y(16) + 14 y(3) - y(7) + 7 y(8) + 11 y(10)
      + 8 y(12) + 8 y(17) + 13 y(14) - y(15) - y(1) + 7 y(5) <= 91
 c23: 13 y(2) + 12 y(11) + 15 y(16) + y(3) + 2 y(7) + 18 y(10) + 10 y(12)
      + 12 y(17) + 9 y(1) + 5 y(5) <= 50
 c24: 4 y(0) + 14 y(2) + 10 y(19) + 7 y(10) + 11 y(12) + 15 y(18) + 19 y(15)
      - y(5) + 2 y(4) <= 76
 c25: 7 y(0) + 20 y(16) + 2 y(12) + 11 y(13) + 9 y(15) + 14 y(5) + 6 y(4) <= 95
 c26: 9 y(0) + 16 y(16) + 20 y(19) + 4 y(7) + 2 y(12) + 5 y(13) + 9 y(17)
      + 17 y(15) <= 80
 c27: 9 y(2) + 8 y(6) + 20 y(9) + 15 y(19) + 9 y(7) + 6 y(8) + 18 y(10)
      + 17 y(13) + 16 y(15) + 19 y(1) <= 60
 c28: 7 y(2) + 10 y(16) + 12 y(19) + 15 y(3) + 4 y(7) + 18 y(8) + 10 y(12)
      + 9 y(13) + 4 y(17) + 19 y(18) <= 67
 c29: - y(2) + y(16) + 13 y(3) + 8 y(10) + 10 y(12) + 8 y(18) + 4 y(14)
      + 15 y(15) + 2 y(1) <= 92
 c30: 18 y(0) + 16 y(2) + 4 y(6) + 19 y(9) + 3 y(11) + 15 y(7) + 9 y(10)
      + 15 y(12) + 3 y(13) + 14 y(1) <= 77
 c31: 18 y(0) + 16 y(9) + 20 y(19) + 14 y(3) + 13 y(14) + 4 y(15) + 11 y(4)
      <= 96
 c32: 4 y(0) + 11 y(6) + 17 y(11) + 8 y(16) + 17 y(3) + 7 y(7) + 18 y(8)
      + 6 y(13) + 13 y(18) + 18 y(15) + 9 y(1) - y(5) + y(4) <= 99
 c33: 19 y(6) - y(16) + y(19) + y(7) + 5 y(10) + 15 y(13) + 11 y(18) + 7 y(15)
      + 13 y(5) + y(4) <= 100
 c34: 17 y(2) + 12 y(11) + 8 y(16) - y(19) + 9 y(3) + 9 y(7) + 4 y(8) + y(10)
      + 11 y(18) + 7 y(15) + 3 y(1) <= 78
 c35: 18 y(2) + 19 y(6) + 3 y(9) + 8 y(13) + y(18) + y(1) <= 54
 c36: 3 y(9) + 18 y(11) + 16 y(16) + 10 y(7) + 11 y(10) + 20 y(18) + 14 y(15)
      + 13 y(1) <= 91
 c37: 8 y(0) + 5 y(16) + 2 y(19) + 4 y(7) + 3 y(10) + 11 y(12) + 12 y(18)
      + 12 y(15) + 7 y(5) <= 75
 c38: 2 y(0) + 19 y(6) + 3 y(9) + 17 y(11) + 15 y(8) - y(10) + 11 y(12)
      + 8 y(18) - y(14) <= 77
 c39: 4 y(9) + 3 y(19) + 8 y(12) + 16 y(17) + 9 y(18) + 10 y(15) + 20 y(5)
      <= 54
 c40: x(0) + x(1) + x(2) + x(3) + x(4) + x(5) + x(6) + x(7) + x(8) + x(9)
      + x(10) + x(11) + x(12) + x(13) + x(14) + x(15) + x(16) + x(17) + x(18)
      + x(19) <= 6
 c41: - 3 y(0) - 8 y(2) + 5 y(6) + 8 y(9) + 10 y(11) - 7 y(16) + 2 y(19)
      + 32 x(0) + 4 y(3) + 9 y(7) + 3 y(8) + 7 y(10) + 7 y(12) + 3 y(13)
      + y(17) - 8 y(18) + 163 x(1) - 9 y(14) + y(15) - 22 x(2) + 8 y(1)
      - 7 y(5) - 37 x(3) + 9 y(4) + x(4) + 89 x(5) - 126 x(6) + 10 x(7)
      + 193 x(8) - 168 x(9) + x(10) + 122 x(11) + 53 x(12) + 4 x(13) - 18 x(14)
      + 98 x(15) - 116 x(16) - 187 x(17) + 172 x(18) - 194 x(19) = 0
Bounds
 0 <= x(0) <= 1
 0 <= x(1) <= 1
 0 <= x(2) <= 1
 0 <= x(3) <= 1
 0 <= x(4) <= 1
 0 <= x(5) <= 1
 0 <= x(6) <= 1
 0 <= x(7) <= 1
 0 <= x(8) <= 1
 0 <= x(9) <= 1
 0 <= x(10) <= 1
 0 <= x(11) <= 1
 0 <= x(12) <= 1
 0 <= x(13) <= 1
 0 <= x(14) <= 1
 0 <= x(15) <= 1
 0 <= x(16) <= 1
 0 <= x(17) <= 1
 0 <= x(18) <= 1
 0 <= x(19) <= 1
Binaries
 x(0)  x(1)  x(2)  x(3)  x(4)  x(5)  x(6)  x(7)  x(8)  x(9)  x(10)  x(11) 
 x(12)  x(13)  x(14)  x(15)  x(16)  x(17)  x(18)  x(19) 
End
